c t mc
c file mc2022_track1_126.cnf
p cnf 288 2066
1 0
10 11 0
19 20 21 0
28 29 30 31 0
37 38 39 40 41 0
46 47 48 49 50 51 0
55 56 57 58 59 60 61 0
64 65 66 67 68 69 70 71 0
73 74 75 76 77 78 79 80 81 0
82 83 84 85 86 87 88 89 90 0
91 92 93 94 95 96 97 98 99 0
100 101 102 103 104 105 106 107 108 0
109 110 111 112 113 114 115 116 117 0
118 119 120 121 122 123 124 125 126 0
127 128 129 130 131 132 133 134 135 0
136 137 138 139 140 141 142 143 144 0
145 146 147 148 149 150 151 152 153 0
154 155 156 157 158 159 160 161 162 0
163 164 165 166 167 168 169 170 171 0
172 173 174 175 176 177 178 179 180 0
181 182 183 184 185 186 187 188 189 0
190 191 192 193 194 195 196 197 198 0
199 200 201 202 203 204 205 206 207 0
208 209 210 211 212 213 214 215 216 0
217 218 219 220 221 222 223 224 225 0
226 227 228 229 230 231 232 233 234 0
235 236 237 238 239 240 241 242 243 0
244 245 246 247 248 249 250 251 252 0
253 254 255 256 257 258 259 260 261 0
262 263 264 265 266 267 268 269 270 0
271 272 273 274 275 276 277 278 279 0
280 281 282 283 284 285 286 287 288 0
-64 -217 0
-65 -218 0
-66 -219 0
-67 -220 0
-68 -221 0
-69 -222 0
-70 -223 0
-71 -224 0
-72 -225 0
-118 -226 0
-119 -227 0
-120 -228 0
-121 -229 0
-122 -230 0
-123 -231 0
-124 -232 0
-125 -233 0
-126 -234 0
-109 -136 0
-110 -137 0
-111 -138 0
-112 -139 0
-113 -140 0
-114 -141 0
-115 -142 0
-116 -143 0
-117 -144 0
-199 -253 0
-200 -254 0
-201 -255 0
-202 -256 0
-203 -257 0
-204 -258 0
-205 -259 0
-206 -260 0
-207 -261 0
-163 -208 0
-164 -209 0
-165 -210 0
-166 -211 0
-167 -212 0
-168 -213 0
-169 -214 0
-170 -215 0
-171 -216 0
-28 -262 0
-29 -263 0
-30 -264 0
-31 -265 0
-32 -266 0
-33 -267 0
-34 -268 0
-35 -269 0
-36 -270 0
-37 -235 0
-38 -236 0
-39 -237 0
-40 -238 0
-41 -239 0
-42 -240 0
-43 -241 0
-44 -242 0
-45 -243 0
-82 -235 0
-83 -236 0
-84 -237 0
-85 -238 0
-86 -239 0
-87 -240 0
-88 -241 0
-89 -242 0
-90 -243 0
-136 -163 0
-137 -164 0
-138 -165 0
-139 -166 0
-140 -167 0
-141 -168 0
-142 -169 0
-143 -170 0
-144 -171 0
-46 -208 0
-47 -209 0
-48 -210 0
-49 -211 0
-50 -212 0
-51 -213 0
-52 -214 0
-53 -215 0
-54 -216 0
-136 -208 0
-137 -209 0
-138 -210 0
-139 -211 0
-140 -212 0
-141 -213 0
-142 -214 0
-143 -215 0
-144 -216 0
-190 -217 0
-191 -218 0
-192 -219 0
-193 -220 0
-194 -221 0
-195 -222 0
-196 -223 0
-197 -224 0
-198 -225 0
-100 -253 0
-101 -254 0
-102 -255 0
-103 -256 0
-104 -257 0
-105 -258 0
-106 -259 0
-107 -260 0
-108 -261 0
-145 -253 0
-146 -254 0
-147 -255 0
-148 -256 0
-149 -257 0
-150 -258 0
-151 -259 0
-152 -260 0
-153 -261 0
-55 -199 0
-56 -200 0
-57 -201 0
-58 -202 0
-59 -203 0
-60 -204 0
-61 -205 0
-62 -206 0
-63 -207 0
-109 -262 0
-110 -263 0
-111 -264 0
-112 -265 0
-113 -266 0
-114 -267 0
-115 -268 0
-116 -269 0
-117 -270 0
-64 -172 0
-65 -173 0
-66 -174 0
-67 -175 0
-68 -176 0
-69 -177 0
-70 -178 0
-71 -179 0
-72 -180 0
-199 -226 0
-200 -227 0
-201 -228 0
-202 -229 0
-203 -230 0
-204 -231 0
-205 -232 0
-206 -233 0
-207 -234 0
-118 -253 0
-119 -254 0
-120 -255 0
-121 -256 0
-122 -257 0
-123 -258 0
-124 -259 0
-125 -260 0
-126 -261 0
-217 -271 0
-218 -272 0
-219 -273 0
-220 -274 0
-221 -275 0
-222 -276 0
-223 -277 0
-224 -278 0
-225 -279 0
-163 -253 0
-164 -254 0
-165 -255 0
-166 -256 0
-167 -257 0
-168 -258 0
-169 -259 0
-170 -260 0
-171 -261 0
-82 -181 0
-83 -182 0
-84 -183 0
-85 -184 0
-86 -185 0
-87 -186 0
-88 -187 0
-89 -188 0
-90 -189 0
-73 -145 0
-74 -146 0
-75 -147 0
-76 -148 0
-77 -149 0
-78 -150 0
-79 -151 0
-80 -152 0
-81 -153 0
-46 -154 0
-47 -155 0
-48 -156 0
-49 -157 0
-50 -158 0
-51 -159 0
-52 -160 0
-53 -161 0
-54 -162 0
-37 -208 0
-38 -209 0
-39 -210 0
-40 -211 0
-41 -212 0
-42 -213 0
-43 -214 0
-44 -215 0
-45 -216 0
-82 -226 0
-83 -227 0
-84 -228 0
-85 -229 0
-86 -230 0
-87 -231 0
-88 -232 0
-89 -233 0
-90 -234 0
-136 -190 0
-137 -191 0
-138 -192 0
-139 -193 0
-140 -194 0
-141 -195 0
-142 -196 0
-143 -197 0
-144 -198 0
-46 -235 0
-47 -236 0
-48 -237 0
-49 -238 0
-50 -239 0
-51 -240 0
-52 -241 0
-53 -242 0
-54 -243 0
-64 -109 0
-65 -110 0
-66 -111 0
-67 -112 0
-68 -113 0
-69 -114 0
-70 -115 0
-71 -116 0
-72 -117 0
-55 -172 0
-56 -173 0
-57 -174 0
-58 -175 0
-59 -176 0
-60 -177 0
-61 -178 0
-62 -179 0
-63 -180 0
-109 -199 0
-110 -200 0
-111 -201 0
-112 -202 0
-113 -203 0
-114 -204 0
-115 -205 0
-116 -206 0
-117 -207 0
-163 -271 0
-164 -272 0
-165 -273 0
-166 -274 0
-167 -275 0
-168 -276 0
-169 -277 0
-170 -278 0
-171 -279 0
-154 -199 0
-155 -200 0
-156 -201 0
-157 -202 0
-158 -203 0
-159 -204 0
-160 -205 0
-161 -206 0
-162 -207 0
-73 -199 0
-74 -200 0
-75 -201 0
-76 -202 0
-77 -203 0
-78 -204 0
-79 -205 0
-80 -206 0
-81 -207 0
-64 -127 0
-65 -128 0
-66 -129 0
-67 -130 0
-68 -131 0
-69 -132 0
-70 -133 0
-71 -134 0
-72 -135 0
-1 -271 0
-2 -272 0
-3 -273 0
-4 -274 0
-5 -275 0
-6 -276 0
-7 -277 0
-8 -278 0
-9 -279 0
-37 -190 0
-38 -191 0
-39 -192 0
-40 -193 0
-41 -194 0
-42 -195 0
-43 -196 0
-44 -197 0
-45 -198 0
-82 -172 0
-83 -173 0
-84 -174 0
-85 -175 0
-86 -176 0
-87 -177 0
-88 -178 0
-89 -179 0
-90 -180 0
-46 -181 0
-47 -182 0
-48 -183 0
-49 -184 0
-50 -185 0
-51 -186 0
-52 -187 0
-53 -188 0
-54 -189 0
-37 -217 0
-38 -218 0
-39 -219 0
-40 -220 0
-41 -221 0
-42 -222 0
-43 -223 0
-44 -224 0
-45 -225 0
-190 -235 0
-191 -236 0
-192 -237 0
-193 -238 0
-194 -239 0
-195 -240 0
-196 -241 0
-197 -242 0
-198 -243 0
-55 -262 0
-56 -263 0
-57 -264 0
-58 -265 0
-59 -266 0
-60 -267 0
-61 -268 0
-62 -269 0
-63 -270 0
-118 -280 0
-119 -281 0
-120 -282 0
-121 -283 0
-122 -284 0
-123 -285 0
-124 -286 0
-125 -287 0
-126 -288 0
-19 -217 0
-20 -218 0
-21 -219 0
-22 -220 0
-23 -221 0
-24 -222 0
-25 -223 0
-26 -224 0
-27 -225 0
-64 -253 0
-65 -254 0
-66 -255 0
-67 -256 0
-68 -257 0
-69 -258 0
-70 -259 0
-71 -260 0
-72 -261 0
-55 -145 0
-56 -146 0
-57 -147 0
-58 -148 0
-59 -149 0
-60 -150 0
-61 -151 0
-62 -152 0
-63 -153 0
-109 -172 0
-110 -173 0
-111 -174 0
-112 -175 0
-113 -176 0
-114 -177 0
-115 -178 0
-116 -179 0
-117 -180 0
-28 -226 0
-29 -227 0
-30 -228 0
-31 -229 0
-32 -230 0
-33 -231 0
-34 -232 0
-35 -233 0
-36 -234 0
-208 -280 0
-209 -281 0
-210 -282 0
-211 -283 0
-212 -284 0
-213 -285 0
-214 -286 0
-215 -287 0
-216 -288 0
-64 -154 0
-65 -155 0
-66 -156 0
-67 -157 0
-68 -158 0
-69 -159 0
-70 -160 0
-71 -161 0
-72 -162 0
-172 -199 0
-173 -200 0
-174 -201 0
-175 -202 0
-176 -203 0
-177 -204 0
-178 -205 0
-179 -206 0
-180 -207 0
-19 -271 0
-20 -272 0
-21 -273 0
-22 -274 0
-23 -275 0
-24 -276 0
-25 -277 0
-26 -278 0
-27 -279 0
-82 -127 0
-83 -128 0
-84 -129 0
-85 -130 0
-86 -131 0
-87 -132 0
-88 -133 0
-89 -134 0
-90 -135 0
-46 -172 0
-47 -173 0
-48 -174 0
-49 -175 0
-50 -176 0
-51 -177 0
-52 -178 0
-53 -179 0
-54 -180 0
-91 -226 0
-92 -227 0
-93 -228 0
-94 -229 0
-95 -230 0
-96 -231 0
-97 -232 0
-98 -233 0
-99 -234 0
-136 -244 0
-137 -245 0
-138 -246 0
-139 -247 0
-140 -248 0
-141 -249 0
-142 -250 0
-143 -251 0
-144 -252 0
-109 -280 0
-110 -281 0
-111 -282 0
-112 -283 0
-113 -284 0
-114 -285 0
-115 -286 0
-116 -287 0
-117 -288 0
-55 -235 0
-56 -236 0
-57 -237 0
-58 -238 0
-59 -239 0
-60 -240 0
-61 -241 0
-62 -242 0
-63 -243 0
-199 -280 0
-200 -281 0
-201 -282 0
-202 -283 0
-203 -284 0
-204 -285 0
-205 -286 0
-206 -287 0
-207 -288 0
-19 -262 0
-20 -263 0
-21 -264 0
-22 -265 0
-23 -266 0
-24 -267 0
-25 -268 0
-26 -269 0
-27 -270 0
-154 -280 0
-155 -281 0
-156 -282 0
-157 -283 0
-158 -284 0
-159 -285 0
-160 -286 0
-161 -287 0
-162 -288 0
-64 -208 0
-65 -209 0
-66 -210 0
-67 -211 0
-68 -212 0
-69 -213 0
-70 -214 0
-71 -215 0
-72 -216 0
-109 -181 0
-110 -182 0
-111 -183 0
-112 -184 0
-113 -185 0
-114 -186 0
-115 -187 0
-116 -188 0
-117 -189 0
-28 -253 0
-29 -254 0
-30 -255 0
-31 -256 0
-32 -257 0
-33 -258 0
-34 -259 0
-35 -260 0
-36 -261 0
-163 -217 0
-164 -218 0
-165 -219 0
-166 -220 0
-167 -221 0
-168 -222 0
-169 -223 0
-170 -224 0
-171 -225 0
-73 -253 0
-74 -254 0
-75 -255 0
-76 -256 0
-77 -257 0
-78 -258 0
-79 -259 0
-80 -260 0
-81 -261 0
-208 -253 0
-209 -254 0
-210 -255 0
-211 -256 0
-212 -257 0
-213 -258 0
-214 -259 0
-215 -260 0
-216 -261 0
-226 -280 0
-227 -281 0
-228 -282 0
-229 -283 0
-230 -284 0
-231 -285 0
-232 -286 0
-233 -287 0
-234 -288 0
-37 -244 0
-38 -245 0
-39 -246 0
-40 -247 0
-41 -248 0
-42 -249 0
-43 -250 0
-44 -251 0
-45 -252 0
-172 -226 0
-173 -227 0
-174 -228 0
-175 -229 0
-176 -230 0
-177 -231 0
-178 -232 0
-179 -233 0
-180 -234 0
-82 -262 0
-83 -263 0
-84 -264 0
-85 -265 0
-86 -266 0
-87 -267 0
-88 -268 0
-89 -269 0
-90 -270 0
-217 -244 0
-218 -245 0
-219 -246 0
-220 -247 0
-221 -248 0
-222 -249 0
-223 -250 0
-224 -251 0
-225 -252 0
-55 -271 0
-56 -272 0
-57 -273 0
-58 -274 0
-59 -275 0
-60 -276 0
-61 -277 0
-62 -278 0
-63 -279 0
-46 -199 0
-47 -200 0
-48 -201 0
-49 -202 0
-50 -203 0
-51 -204 0
-52 -205 0
-53 -206 0
-54 -207 0
-37 -271 0
-38 -272 0
-39 -273 0
-40 -274 0
-41 -275 0
-42 -276 0
-43 -277 0
-44 -278 0
-45 -279 0
-91 -199 0
-92 -200 0
-93 -201 0
-94 -202 0
-95 -203 0
-96 -204 0
-97 -205 0
-98 -206 0
-99 -207 0
-136 -199 0
-137 -200 0
-138 -201 0
-139 -202 0
-140 -203 0
-141 -204 0
-142 -205 0
-143 -206 0
-144 -207 0
-55 -208 0
-56 -209 0
-57 -210 0
-58 -211 0
-59 -212 0
-60 -213 0
-61 -214 0
-62 -215 0
-63 -216 0
-109 -235 0
-110 -236 0
-111 -237 0
-112 -238 0
-113 -239 0
-114 -240 0
-115 -241 0
-116 -242 0
-117 -243 0
-19 -235 0
-20 -236 0
-21 -237 0
-22 -238 0
-23 -239 0
-24 -240 0
-25 -241 0
-26 -242 0
-27 -243 0
-64 -163 0
-65 -164 0
-66 -165 0
-67 -166 0
-68 -167 0
-69 -168 0
-70 -169 0
-71 -170 0
-72 -171 0
-217 -280 0
-218 -281 0
-219 -282 0
-220 -283 0
-221 -284 0
-222 -285 0
-223 -286 0
-224 -287 0
-225 -288 0
-109 -154 0
-110 -155 0
-111 -156 0
-112 -157 0
-113 -158 0
-114 -159 0
-115 -160 0
-116 -161 0
-117 -162 0
-172 -280 0
-173 -281 0
-174 -282 0
-175 -283 0
-176 -284 0
-177 -285 0
-178 -286 0
-179 -287 0
-180 -288 0
-163 -262 0
-164 -263 0
-165 -264 0
-166 -265 0
-167 -266 0
-168 -267 0
-169 -268 0
-170 -269 0
-171 -270 0
-10 -280 0
-11 -281 0
-12 -282 0
-13 -283 0
-14 -284 0
-15 -285 0
-16 -286 0
-17 -287 0
-18 -288 0
-37 -253 0
-38 -254 0
-39 -255 0
-40 -256 0
-41 -257 0
-42 -258 0
-43 -259 0
-44 -260 0
-45 -261 0
-172 -253 0
-173 -254 0
-174 -255 0
-175 -256 0
-176 -257 0
-177 -258 0
-178 -259 0
-179 -260 0
-180 -261 0
-91 -145 0
-92 -146 0
-93 -147 0
-94 -148 0
-95 -149 0
-96 -150 0
-97 -151 0
-98 -152 0
-99 -153 0
-82 -217 0
-83 -218 0
-84 -219 0
-85 -220 0
-86 -221 0
-87 -222 0
-88 -223 0
-89 -224 0
-90 -225 0
-136 -181 0
-137 -182 0
-138 -183 0
-139 -184 0
-140 -185 0
-141 -186 0
-142 -187 0
-143 -188 0
-144 -189 0
-46 -262 0
-47 -263 0
-48 -264 0
-49 -265 0
-50 -266 0
-51 -267 0
-52 -268 0
-53 -269 0
-54 -270 0
-145 -172 0
-146 -173 0
-147 -174 0
-148 -175 0
-149 -176 0
-150 -177 0
-151 -178 0
-152 -179 0
-153 -180 0
-136 -226 0
-137 -227 0
-138 -228 0
-139 -229 0
-140 -230 0
-141 -231 0
-142 -232 0
-143 -233 0
-144 -234 0
-64 -100 0
-65 -101 0
-66 -102 0
-67 -103 0
-68 -104 0
-69 -105 0
-70 -106 0
-71 -107 0
-72 -108 0
-55 -181 0
-56 -182 0
-57 -183 0
-58 -184 0
-59 -185 0
-60 -186 0
-61 -187 0
-62 -188 0
-63 -189 0
-109 -208 0
-110 -209 0
-111 -210 0
-112 -211 0
-113 -212 0
-114 -213 0
-115 -214 0
-116 -215 0
-117 -216 0
-163 -280 0
-164 -281 0
-165 -282 0
-166 -283 0
-167 -284 0
-168 -285 0
-169 -286 0
-170 -287 0
-171 -288 0
-154 -226 0
-155 -227 0
-156 -228 0
-157 -229 0
-158 -230 0
-159 -231 0
-160 -232 0
-161 -233 0
-162 -234 0
-64 -190 0
-65 -191 0
-66 -192 0
-67 -193 0
-68 -194 0
-69 -195 0
-70 -196 0
-71 -197 0
-72 -198 0
-37 -163 0
-38 -164 0
-39 -165 0
-40 -166 0
-41 -167 0
-42 -168 0
-43 -169 0
-44 -170 0
-45 -171 0
-163 -235 0
-164 -236 0
-165 -237 0
-166 -238 0
-167 -239 0
-168 -240 0
-169 -241 0
-170 -242 0
-171 -243 0
-82 -163 0
-83 -164 0
-84 -165 0
-85 -166 0
-86 -167 0
-87 -168 0
-88 -169 0
-89 -170 0
-90 -171 0
-235 -280 0
-236 -281 0
-237 -282 0
-238 -283 0
-239 -284 0
-240 -285 0
-241 -286 0
-242 -287 0
-243 -288 0
-46 -136 0
-47 -137 0
-48 -138 0
-49 -139 0
-50 -140 0
-51 -141 0
-52 -142 0
-53 -143 0
-54 -144 0
-37 -226 0
-38 -227 0
-39 -228 0
-40 -229 0
-41 -230 0
-42 -231 0
-43 -232 0
-44 -233 0
-45 -234 0
-28 -280 0
-29 -281 0
-30 -282 0
-31 -283 0
-32 -284 0
-33 -285 0
-34 -286 0
-35 -287 0
-36 -288 0
-190 -280 0
-191 -281 0
-192 -282 0
-193 -283 0
-194 -284 0
-195 -285 0
-196 -286 0
-197 -287 0
-198 -288 0
-82 -208 0
-83 -209 0
-84 -210 0
-85 -211 0
-86 -212 0
-87 -213 0
-88 -214 0
-89 -215 0
-90 -216 0
-181 -253 0
-182 -254 0
-183 -255 0
-184 -256 0
-185 -257 0
-186 -258 0
-187 -259 0
-188 -260 0
-189 -261 0
-262 -280 0
-263 -281 0
-264 -282 0
-265 -283 0
-266 -284 0
-267 -285 0
-268 -286 0
-269 -287 0
-270 -288 0
-190 -262 0
-191 -263 0
-192 -264 0
-193 -265 0
-194 -266 0
-195 -267 0
-196 -268 0
-197 -269 0
-198 -270 0
-73 -118 0
-74 -119 0
-75 -120 0
-76 -121 0
-77 -122 0
-78 -123 0
-79 -124 0
-80 -125 0
-81 -126 0
-64 -244 0
-65 -245 0
-66 -246 0
-67 -247 0
-68 -248 0
-69 -249 0
-70 -250 0
-71 -251 0
-72 -252 0
-55 -154 0
-56 -155 0
-57 -156 0
-58 -157 0
-59 -158 0
-60 -159 0
-61 -160 0
-62 -161 0
-63 -162 0
-109 -217 0
-110 -218 0
-111 -219 0
-112 -220 0
-113 -221 0
-114 -222 0
-115 -223 0
-116 -224 0
-117 -225 0
-28 -217 0
-29 -218 0
-30 -219 0
-31 -220 0
-32 -221 0
-33 -222 0
-34 -223 0
-35 -224 0
-36 -225 0
-82 -109 0
-83 -110 0
-84 -111 0
-85 -112 0
-86 -113 0
-87 -114 0
-88 -115 0
-89 -116 0
-90 -117 0
-64 -145 0
-65 -146 0
-66 -147 0
-67 -148 0
-68 -149 0
-69 -150 0
-70 -151 0
-71 -152 0
-72 -153 0
-181 -280 0
-182 -281 0
-183 -282 0
-184 -283 0
-185 -284 0
-186 -285 0
-187 -286 0
-188 -287 0
-189 -288 0
-28 -190 0
-29 -191 0
-30 -192 0
-31 -193 0
-32 -194 0
-33 -195 0
-34 -196 0
-35 -197 0
-36 -198 0
-19 -280 0
-20 -281 0
-21 -282 0
-22 -283 0
-23 -284 0
-24 -285 0
-25 -286 0
-26 -287 0
-27 -288 0
-82 -154 0
-83 -155 0
-84 -156 0
-85 -157 0
-86 -158 0
-87 -159 0
-88 -160 0
-89 -161 0
-90 -162 0
-46 -163 0
-47 -164 0
-48 -165 0
-49 -166 0
-50 -167 0
-51 -168 0
-52 -169 0
-53 -170 0
-54 -171 0
-253 -280 0
-254 -281 0
-255 -282 0
-256 -283 0
-257 -284 0
-258 -285 0
-259 -286 0
-260 -287 0
-261 -288 0
-64 -280 0
-65 -281 0
-66 -282 0
-67 -283 0
-68 -284 0
-69 -285 0
-70 -286 0
-71 -287 0
-72 -288 0
-136 -235 0
-137 -236 0
-138 -237 0
-139 -238 0
-140 -239 0
-141 -240 0
-142 -241 0
-143 -242 0
-144 -243 0
-46 -280 0
-47 -281 0
-48 -282 0
-49 -283 0
-50 -284 0
-51 -285 0
-52 -286 0
-53 -287 0
-54 -288 0
-181 -226 0
-182 -227 0
-183 -228 0
-184 -229 0
-185 -230 0
-186 -231 0
-187 -232 0
-188 -233 0
-189 -234 0
-145 -226 0
-146 -227 0
-147 -228 0
-148 -229 0
-149 -230 0
-150 -231 0
-151 -232 0
-152 -233 0
-153 -234 0
-136 -280 0
-137 -281 0
-138 -282 0
-139 -283 0
-140 -284 0
-141 -285 0
-142 -286 0
-143 -287 0
-144 -288 0
-10 -262 0
-11 -263 0
-12 -264 0
-13 -265 0
-14 -266 0
-15 -267 0
-16 -268 0
-17 -269 0
-18 -270 0
-64 -82 0
-65 -83 0
-66 -84 0
-67 -85 0
-68 -86 0
-69 -87 0
-70 -88 0
-71 -89 0
-72 -90 0
-55 -244 0
-56 -245 0
-57 -246 0
-58 -247 0
-59 -248 0
-60 -249 0
-61 -250 0
-62 -251 0
-63 -252 0
-64 -199 0
-65 -200 0
-66 -201 0
-67 -202 0
-68 -203 0
-69 -204 0
-70 -205 0
-71 -206 0
-72 -207 0
-55 -127 0
-56 -128 0
-57 -129 0
-58 -130 0
-59 -131 0
-60 -132 0
-61 -133 0
-62 -134 0
-63 -135 0
-109 -190 0
-110 -191 0
-111 -192 0
-112 -193 0
-113 -194 0
-114 -195 0
-115 -196 0
-116 -197 0
-117 -198 0
-28 -244 0
-29 -245 0
-30 -246 0
-31 -247 0
-32 -248 0
-33 -249 0
-34 -250 0
-35 -251 0
-36 -252 0
-163 -226 0
-164 -227 0
-165 -228 0
-166 -229 0
-167 -230 0
-168 -231 0
-169 -232 0
-170 -233 0
-171 -234 0
-154 -172 0
-155 -173 0
-156 -174 0
-157 -175 0
-158 -176 0
-159 -177 0
-160 -178 0
-161 -179 0
-162 -180 0
-82 -253 0
-83 -254 0
-84 -255 0
-85 -256 0
-86 -257 0
-87 -258 0
-88 -259 0
-89 -260 0
-90 -261 0
-55 -280 0
-56 -281 0
-57 -282 0
-58 -283 0
-59 -284 0
-60 -285 0
-61 -286 0
-62 -287 0
-63 -288 0
-46 -226 0
-47 -227 0
-48 -228 0
-49 -229 0
-50 -230 0
-51 -231 0
-52 -232 0
-53 -233 0
-54 -234 0
-127 -253 0
-128 -254 0
-129 -255 0
-130 -256 0
-131 -257 0
-132 -258 0
-133 -259 0
-134 -260 0
-135 -261 0
-100 -118 0
-101 -119 0
-102 -120 0
-103 -121 0
-104 -122 0
-105 -123 0
-106 -124 0
-107 -125 0
-108 -126 0
-37 -280 0
-38 -281 0
-39 -282 0
-40 -283 0
-41 -284 0
-42 -285 0
-43 -286 0
-44 -287 0
-45 -288 0
-136 -262 0
-137 -263 0
-138 -264 0
-139 -265 0
-140 -266 0
-141 -267 0
-142 -268 0
-143 -269 0
-144 -270 0
-127 -280 0
-128 -281 0
-129 -282 0
-130 -283 0
-131 -284 0
-132 -285 0
-133 -286 0
-134 -287 0
-135 -288 0
-82 -280 0
-83 -281 0
-84 -282 0
-85 -283 0
-86 -284 0
-87 -285 0
-88 -286 0
-89 -287 0
-90 -288 0
-55 -217 0
-56 -218 0
-57 -219 0
-58 -220 0
-59 -221 0
-60 -222 0
-61 -223 0
-62 -224 0
-63 -225 0
-109 -244 0
-110 -245 0
-111 -246 0
-112 -247 0
-113 -248 0
-114 -249 0
-115 -250 0
-116 -251 0
-117 -252 0
-19 -244 0
-20 -245 0
-21 -246 0
-22 -247 0
-23 -248 0
-24 -249 0
-25 -250 0
-26 -251 0
-27 -252 0
-64 -226 0
-65 -227 0
-66 -228 0
-67 -229 0
-68 -230 0
-69 -231 0
-70 -232 0
-71 -233 0
-72 -234 0
-118 -199 0
-119 -200 0
-120 -201 0
-121 -202 0
-122 -203 0
-123 -204 0
-124 -205 0
-125 -206 0
-126 -207 0
-10 -271 0
-11 -272 0
-12 -273 0
-13 -274 0
-14 -275 0
-15 -276 0
-16 -277 0
-17 -278 0
-18 -279 0
-118 -172 0
-119 -173 0
-120 -174 0
-121 -175 0
-122 -176 0
-123 -177 0
-124 -178 0
-125 -179 0
-126 -180 0
-37 -262 0
-38 -263 0
-39 -264 0
-40 -265 0
-41 -266 0
-42 -267 0
-43 -268 0
-44 -269 0
-45 -270 0
-244 -271 0
-245 -272 0
-246 -273 0
-247 -274 0
-248 -275 0
-249 -276 0
-250 -277 0
-251 -278 0
-252 -279 0
-82 -244 0
-83 -245 0
-84 -246 0
-85 -247 0
-86 -248 0
-87 -249 0
-88 -250 0
-89 -251 0
-90 -252 0
-217 -262 0
-218 -263 0
-219 -264 0
-220 -265 0
-221 -266 0
-222 -267 0
-223 -268 0
-224 -269 0
-225 -270 0
-127 -226 0
-128 -227 0
-129 -228 0
-130 -229 0
-131 -230 0
-132 -231 0
-133 -232 0
-134 -233 0
-135 -234 0
-46 -253 0
-47 -254 0
-48 -255 0
-49 -256 0
-50 -257 0
-51 -258 0
-52 -259 0
-53 -260 0
-54 -261 0
-100 -145 0
-101 -146 0
-102 -147 0
-103 -148 0
-104 -149 0
-105 -150 0
-106 -151 0
-107 -152 0
-108 -153 0
-91 -253 0
-92 -254 0
-93 -255 0
-94 -256 0
-95 -257 0
-96 -258 0
-97 -259 0
-98 -260 0
-99 -261 0
-226 -253 0
-227 -254 0
-228 -255 0
-229 -256 0
-230 -257 0
-231 -258 0
-232 -259 0
-233 -260 0
-234 -261 0
-73 -280 0
-74 -281 0
-75 -282 0
-76 -283 0
-77 -284 0
-78 -285 0
-79 -286 0
-80 -287 0
-81 -288 0
-136 -217 0
-137 -218 0
-138 -219 0
-139 -220 0
-140 -221 0
-141 -222 0
-142 -223 0
-143 -224 0
-144 -225 0
-145 -280 0
-146 -281 0
-147 -282 0
-148 -283 0
-149 -284 0
-150 -285 0
-151 -286 0
-152 -287 0
-153 -288 0
-100 -280 0
-101 -281 0
-102 -282 0
-103 -283 0
-104 -284 0
-105 -285 0
-106 -286 0
-107 -287 0
-108 -288 0
-55 -190 0
-56 -191 0
-57 -192 0
-58 -193 0
-59 -194 0
-60 -195 0
-61 -196 0
-62 -197 0
-63 -198 0
-109 -253 0
-110 -254 0
-111 -255 0
-112 -256 0
-113 -257 0
-114 -258 0
-115 -259 0
-116 -260 0
-117 -261 0
-64 -181 0
-65 -182 0
-66 -183 0
-67 -184 0
-68 -185 0
-69 -186 0
-70 -187 0
-71 -188 0
-72 -189 0
-163 -244 0
-164 -245 0
-165 -246 0
-166 -247 0
-167 -248 0
-168 -249 0
-169 -250 0
-170 -251 0
-171 -252 0
-82 -190 0
-83 -191 0
-84 -192 0
-85 -193 0
-86 -194 0
-87 -195 0
-88 -196 0
-89 -197 0
-90 -198 0
-73 -172 0
-74 -173 0
-75 -174 0
-76 -175 0
-77 -176 0
-78 -177 0
-79 -178 0
-80 -179 0
-81 -180 0
-208 -226 0
-209 -227 0
-210 -228 0
-211 -229 0
-212 -230 0
-213 -231 0
-214 -232 0
-215 -233 0
-216 -234 0
-127 -172 0
-128 -173 0
-129 -174 0
-130 -175 0
-131 -176 0
-132 -177 0
-133 -178 0
-134 -179 0
-135 -180 0
-37 -199 0
-38 -200 0
-39 -201 0
-40 -202 0
-41 -203 0
-42 -204 0
-43 -205 0
-44 -206 0
-45 -207 0
-28 -271 0
-29 -272 0
-30 -273 0
-31 -274 0
-32 -275 0
-33 -276 0
-34 -277 0
-35 -278 0
-36 -279 0
-190 -271 0
-191 -272 0
-192 -273 0
-193 -274 0
-194 -275 0
-195 -276 0
-196 -277 0
-197 -278 0
-198 -279 0
-82 -199 0
-83 -200 0
-84 -201 0
-85 -202 0
-86 -203 0
-87 -204 0
-88 -205 0
-89 -206 0
-90 -207 0
-127 -199 0
-128 -200 0
-129 -201 0
-130 -202 0
-131 -203 0
-132 -204 0
-133 -205 0
-134 -206 0
-135 -207 0
-46 -244 0
-47 -245 0
-48 -246 0
-49 -247 0
-50 -248 0
-51 -249 0
-52 -250 0
-53 -251 0
-54 -252 0
-100 -172 0
-101 -173 0
-102 -174 0
-103 -175 0
-104 -176 0
-105 -177 0
-106 -178 0
-107 -179 0
-108 -180 0
-55 -109 0
-56 -110 0
-57 -111 0
-58 -112 0
-59 -113 0
-60 -114 0
-61 -115 0
-62 -116 0
-63 -117 0
-190 -253 0
-191 -254 0
-192 -255 0
-193 -256 0
-194 -257 0
-195 -258 0
-196 -259 0
-197 -260 0
-198 -261 0
-91 -280 0
-92 -281 0
-93 -282 0
-94 -283 0
-95 -284 0
-96 -285 0
-97 -286 0
-98 -287 0
-99 -288 0
-235 -253 0
-236 -254 0
-237 -255 0
-238 -256 0
-239 -257 0
-240 -258 0
-241 -259 0
-242 -260 0
-243 -261 0
-64 -118 0
-65 -119 0
-66 -120 0
-67 -121 0
-68 -122 0
-69 -123 0
-70 -124 0
-71 -125 0
-72 -126 0
-73 -91 0
-74 -92 0
-75 -93 0
-76 -94 0
-77 -95 0
-78 -96 0
-79 -97 0
-80 -98 0
-81 -99 0
-64 -235 0
-65 -236 0
-66 -237 0
-67 -238 0
-68 -239 0
-69 -240 0
-70 -241 0
-71 -242 0
-72 -243 0
-55 -163 0
-56 -164 0
-57 -165 0
-58 -166 0
-59 -167 0
-60 -168 0
-61 -169 0
-62 -170 0
-63 -171 0
-109 -226 0
-110 -227 0
-111 -228 0
-112 -229 0
-113 -230 0
-114 -231 0
-115 -232 0
-116 -233 0
-117 -234 0
-28 -208 0
-29 -209 0
-30 -210 0
-31 -211 0
-32 -212 0
-33 -213 0
-34 -214 0
-35 -215 0
-36 -216 0
-73 -226 0
-74 -227 0
-75 -228 0
-76 -229 0
-77 -230 0
-78 -231 0
-79 -232 0
-80 -233 0
-81 -234 0
-64 -136 0
-65 -137 0
-66 -138 0
-67 -139 0
-68 -140 0
-69 -141 0
-70 -142 0
-71 -143 0
-72 -144 0
-118 -145 0
-119 -146 0
-120 -147 0
-121 -148 0
-122 -149 0
-123 -150 0
-124 -151 0
-125 -152 0
-126 -153 0
-37 -181 0
-38 -182 0
-39 -183 0
-40 -184 0
-41 -185 0
-42 -186 0
-43 -187 0
-44 -188 0
-45 -189 0
-82 -145 0
-83 -146 0
-84 -147 0
-85 -148 0
-86 -149 0
-87 -150 0
-88 -151 0
-89 -152 0
-90 -153 0
-127 -145 0
-128 -146 0
-129 -147 0
-130 -148 0
-131 -149 0
-132 -150 0
-133 -151 0
-134 -152 0
-135 -153 0
-46 -190 0
-47 -191 0
-48 -192 0
-49 -193 0
-50 -194 0
-51 -195 0
-52 -196 0
-53 -197 0
-54 -198 0
-91 -172 0
-92 -173 0
-93 -174 0
-94 -175 0
-95 -176 0
-96 -177 0
-97 -178 0
-98 -179 0
-99 -180 0
-64 -271 0
-65 -272 0
-66 -273 0
-67 -274 0
-68 -275 0
-69 -276 0
-70 -277 0
-71 -278 0
-72 -279 0
-46 -271 0
-47 -272 0
-48 -273 0
-49 -274 0
-50 -275 0
-51 -276 0
-52 -277 0
-53 -278 0
-54 -279 0
-181 -199 0
-182 -200 0
-183 -201 0
-184 -202 0
-185 -203 0
-186 -204 0
-187 -205 0
-188 -206 0
-189 -207 0
-100 -199 0
-101 -200 0
-102 -201 0
-103 -202 0
-104 -203 0
-105 -204 0
-106 -205 0
-107 -206 0
-108 -207 0
-145 -199 0
-146 -200 0
-147 -201 0
-148 -202 0
-149 -203 0
-150 -204 0
-151 -205 0
-152 -206 0
-153 -207 0
-136 -271 0
-137 -272 0
-138 -273 0
-139 -274 0
-140 -275 0
-141 -276 0
-142 -277 0
-143 -278 0
-144 -279 0
-190 -244 0
-191 -245 0
-192 -246 0
-193 -247 0
-194 -248 0
-195 -249 0
-196 -250 0
-197 -251 0
-198 -252 0
-55 -253 0
-56 -254 0
-57 -255 0
-58 -256 0
-59 -257 0
-60 -258 0
-61 -259 0
-62 -260 0
-63 -261 0
-64 -262 0
-65 -263 0
-66 -264 0
-67 -265 0
-68 -266 0
-69 -267 0
-70 -268 0
-71 -269 0
-72 -270 0
-55 -136 0
-56 -137 0
-57 -138 0
-58 -139 0
-59 -140 0
-60 -141 0
-61 -142 0
-62 -143 0
-63 -144 0
-109 -163 0
-110 -164 0
-111 -165 0
-112 -166 0
-113 -167 0
-114 -168 0
-115 -169 0
-116 -170 0
-117 -171 0
-28 -235 0
-29 -236 0
-30 -237 0
-31 -238 0
-32 -239 0
-33 -240 0
-34 -241 0
-35 -242 0
-36 -243 0
-91 -118 0
-92 -119 0
-93 -120 0
-94 -121 0
-95 -122 0
-96 -123 0
-97 -124 0
-98 -125 0
-99 -126 0
-82 -136 0
-83 -137 0
-84 -138 0
-85 -139 0
-86 -140 0
-87 -141 0
-88 -142 0
-89 -143 0
-90 -144 0
-163 -190 0
-164 -191 0
-165 -192 0
-166 -193 0
-167 -194 0
-168 -195 0
-169 -196 0
-170 -197 0
-171 -198 0
-46 -217 0
-47 -218 0
-48 -219 0
-49 -220 0
-50 -221 0
-51 -222 0
-52 -223 0
-53 -224 0
-54 -225 0
-136 -253 0
-137 -254 0
-138 -255 0
-139 -256 0
-140 -257 0
-141 -258 0
-142 -259 0
-143 -260 0
-144 -261 0
-100 -226 0
-101 -227 0
-102 -228 0
-103 -229 0
-104 -230 0
-105 -231 0
-106 -232 0
-107 -233 0
-108 -234 0
-82 -271 0
-83 -272 0
-84 -273 0
-85 -274 0
-86 -275 0
-87 -276 0
-88 -277 0
-89 -278 0
-90 -279 0
-109 -271 0
-110 -272 0
-111 -273 0
-112 -274 0
-113 -275 0
-114 -276 0
-115 -277 0
-116 -278 0
-117 -279 0
-10 -244 0
-11 -245 0
-12 -246 0
-13 -247 0
-14 -248 0
-15 -249 0
-16 -250 0
-17 -251 0
-18 -252 0
-55 -226 0
-56 -227 0
-57 -228 0
-58 -229 0
-59 -230 0
-60 -231 0
-61 -232 0
-62 -233 0
-63 -234 0
-19 -253 0
-20 -254 0
-21 -255 0
-22 -256 0
-23 -257 0
-24 -258 0
-25 -259 0
-26 -260 0
-27 -261 0
-154 -253 0
-155 -254 0
-156 -255 0
-157 -256 0
-158 -257 0
-159 -258 0
-160 -259 0
-161 -260 0
-162 -261 0
